[2026-03-24T16:14:26.922Z] Pipeline "set_vm-3-t1_vm-3-t1_s032_g003" → 2026_03_24_16_14_26_set_vm-3-t1_vm-3-t1_s032_g003_max.sol
Set parameter Username
Set parameter LicenseID to value 2796068
Set parameter LogFile to value "gurobi.log"
Using license file /opt/gurobi/gurobi.lic
Academic license - for non-commercial use only - expires 2027-03-23

Gurobi Optimizer version 13.0.1 build v13.0.1rc0 (linux64 - "Ubuntu 24.04.4 LTS")
Copyright (c) 2026, Gurobi Optimization, LLC

Warning: Duplicate section found (read 'binary') - Is a variable name equal to an LP file format keyword?
Warning: Duplicate section found (read 'binary') - Is a variable name equal to an LP file format keyword?
Warning: Duplicate section found (read 'binary') - Is a variable name equal to an LP file format keyword?
Warning: Duplicate section found (read 'binary') - Is a variable name equal to an LP file format keyword?
Warning: Duplicate section found (read 'binary') - Is a variable name equal to an LP file format keyword?
Warning: Duplicate section found (read 'binary') - Is a variable name equal to an LP file format keyword?
Warning: Duplicate section found (read 'binary') - Is a variable name equal to an LP file format keyword?
Warning: Duplicate section found (read 'binary') - Is a variable name equal to an LP file format keyword?
Warning: Duplicate section found (read 'binary') - Is a variable name equal to an LP file format keyword?
Warning: Duplicate section found (read 'binary') - Is a variable name equal to an LP file format keyword?
Warning: Further warnings of this type will be omitted.
Read LP format model from file /root/bgw/data/uploads/2026_03_24_16_14_26_set_vm-3-t1_vm-3-t1_s032_g003_max.lp
Reading time = 0.00 seconds
: 2751 rows, 298 columns, 8248 nonzeros

Using Gurobi shared library /opt/gurobi1301/linux64/lib/libgurobi.so.13.0.1

CPU model: AMD EPYC-Genoa Processor, instruction set [SSE2|AVX|AVX2|AVX512]
Thread count: 16 physical cores, 16 logical processors, using up to 16 threads

Optimize a model with 2751 rows, 298 columns and 8248 nonzeros (Max)
Model fingerprint: 0x8e29fbe7
Model has 31 linear objective coefficients
Variable types: 51 continuous, 247 integer (247 binary)
Coefficient statistics:
  Matrix range     [1e+00, 2e+01]
  Objective range  [1e+00, 1e+00]
  Bounds range     [1e+00, 1e+00]
  RHS range        [1e+00, 2e+01]

Found heuristic solution: objective 31.0000000
Presolve removed 430 rows and 84 columns
Presolve time: 0.01s
Presolved: 2321 rows, 214 columns, 7082 nonzeros
Variable types: 0 continuous, 214 integer (207 binary)
Found heuristic solution: objective 38.0000000

Root relaxation: objective 1.680000e+02, 142 iterations, 0.01 seconds (0.01 work units)

    Nodes    |    Current Node    |     Objective Bounds      |     Work
 Expl Unexpl |  Obj  Depth IntInf | Incumbent    BestBd   Gap | It/Node Time

     0     0  168.00000    0   27   38.00000  168.00000   342%     -    0s
H    0     0                      45.0000000  168.00000   273%     -    0s
H    0     0                      59.0000000  168.00000   185%     -    0s
H    0     0                      65.0000000  168.00000   158%     -    0s
H    0     0                      72.0000000  168.00000   133%     -    0s
     0     0  168.00000    0   26   72.00000  168.00000   133%     -    0s
     0     0  168.00000    0   26   72.00000  168.00000   133%     -    0s
     0     0  168.00000    0   17   72.00000  168.00000   133%     -    0s
H    0     0                      85.0000000  168.00000  97.6%     -    0s
     0     0  168.00000    0   26   85.00000  168.00000  97.6%     -    0s
     0     0  168.00000    0   26   85.00000  168.00000  97.6%     -    0s
     0     0  167.22222    0   26   85.00000  167.22222  96.7%     -    0s
     0     0  166.05556    0   25   85.00000  166.05556  95.4%     -    0s
     0     0  166.05556    0   24   85.00000  166.05556  95.4%     -    0s
     0     0  161.00000    0   24   85.00000  161.00000  89.4%     -    0s
     0     0  161.00000    0   17   85.00000  161.00000  89.4%     -    0s
     0     0  160.22222    0   24   85.00000  160.22222  88.5%     -    0s
     0     0  160.22222    0   16   85.00000  160.22222  88.5%     -    0s
     0     0  153.61111    0   24   85.00000  153.61111  80.7%     -    0s
     0     0  153.61111    0   18   85.00000  153.61111  80.7%     -    0s
     0     0  153.61111    0   18   85.00000  153.61111  80.7%     -    0s
     0     0  153.61111    0   17   85.00000  153.61111  80.7%     -    0s
     0     2  153.61111    0   17   85.00000  153.61111  80.7%     -    0s

Cutting planes:
  Cover: 99
  Inf proof: 146

Explored 13793 nodes (810984 simplex iterations) in 3.39 seconds (5.53 work units)
Thread count was 16 (of 16 available processors)

Solution count 7: 85 72 65 ... 31

Optimal solution found (tolerance 1.00e-04)
Best objective 8.500000000000e+01, best bound 8.500000000000e+01, gap 0.0000%

Wrote result file '/root/bgw/data/results/2026_03_24_16_14_26_set_vm-3-t1_vm-3-t1_s032_g003_max.sol'

